4 
5  15 37 
6  02 22 41 55 
7  10 24 40 55 
8  10 25 40 55 
9  10 24 39 54 
10  09 24 39 54 
11  09 24 39 54 
12  09 24 39 54 
13  09 25 40 55 
14  10 25 40 55 
15  11 26 41 56 
16  11 26 41 56 
17  11 26 41 56 
18  11 26 41 56 
19  11 26 41 56 
20  11 26 42 56 
21  11 26 41 56 
22  11 28 42 58 
23  22 
0 
